(set-logic QF_SLIA)
(declare-fun var23 () Int)
(declare-fun var7 () String)
(declare-fun var19 () String)
(declare-fun var14 () String)
(declare-fun var16 () String)
(declare-fun var17 () String)
(declare-fun var5 () String)
(declare-fun var21 () Int)
(declare-fun var20 () Int)
(declare-fun var10 () String)
(declare-fun var1 () String)
(declare-fun var22 () Int)
(declare-fun var6 () String)
(declare-fun var9 () String)
(declare-fun var12 () String)
(declare-fun var13 () String)
(declare-fun var15 () String)
(declare-fun var18 () String)
(assert (<= (str.len var6) (str.len (str.replace var17 var12 var7))))
(assert (> (str.len (str.at var5 var22)) (str.len (str.at var15 var20))))
(assert (str.prefixof (str.replace var10 var7 var5) (str.substr var6 var21 3)))
(assert (str.suffixof var19 var1))
(assert (str.contains var16 var9))
(assert (not (str.contains var13 var16)))
(assert (str.contains (str.substr var14 var20 9) (str.at var17 0)))
(assert (str.contains var1 "0H}Fi611fa"))
(assert (< var21 8))
(assert (> (str.indexof (str.substr var1 var20 var22) (str.replace var1 var18 var14) (str.indexof "X-C$DM4``+" var6 var23)) (str.indexof var19 var13 var21)))
(check-sat)
